(set-info :origin "NTS benchmark converted to SMT-LIB2 using Eldarica (http://lara.epfl.ch/w/eldarica)")
(set-logic HORN)
(declare-fun main_h_8 (Int Int Int Int Int Int Int Int) Bool)
(declare-fun main_h_9 (Int Int Int Int Int Int Int Int) Bool)
(declare-fun main_h_7 (Int Int Int Int Int Int Int Int) Bool)
(declare-fun main_h_10 (Int Int Int Int Int Int Int Int) Bool)
(declare-fun main_h_4 (Int Int Int Int Int Int Int Int) Bool)
(declare-fun main_h_5 (Int Int Int Int Int Int Int Int) Bool)
(declare-fun main_h_33 (Int Int Int Int Int Int Int Int) Bool)
(declare-fun main_h_22 (Int Int Int Int Int Int Int Int) Bool)
(declare-fun main_h_6 (Int Int Int Int Int Int Int Int) Bool)
(declare-fun main_h_23 (Int Int Int Int Int Int Int Int) Bool)
(declare-fun main_h_32 (Int Int Int Int Int Int Int Int) Bool)
(declare-fun main_h_31 (Int Int Int Int Int Int Int Int) Bool)
(declare-fun main_h_30 (Int Int Int Int Int Int Int Int) Bool)
(declare-fun main_h_28 (Int Int Int Int Int Int Int Int) Bool)
(declare-fun main_h_29 (Int Int Int Int Int Int Int Int) Bool)
(declare-fun main_h_3 (Int Int Int Int Int Int Int Int) Bool)
(declare-fun main_h_27 (Int Int Int Int Int Int Int Int) Bool)
(declare-fun main_h_24 (Int Int Int Int Int Int Int Int) Bool)
(declare-fun main_h_21 (Int Int Int Int Int Int Int Int) Bool)
(declare-fun main_h_18 (Int Int Int Int Int Int Int Int) Bool)
(declare-fun main_h_20 (Int Int Int Int Int Int Int Int) Bool)
(declare-fun main_h_17 (Int Int Int Int Int Int Int Int) Bool)
(declare-fun main_h_2 (Int Int Int Int Int Int Int Int) Bool)
(declare-fun main_h_19 (Int Int Int Int Int Int Int Int) Bool)
(declare-fun main_h_16 (Int Int Int Int Int Int Int Int) Bool)
(declare-fun main_h_14 (Int Int Int Int Int Int Int Int) Bool)
(declare-fun main_h_13 (Int Int Int Int Int Int Int Int) Bool)
(declare-fun main_h_12 (Int Int Int Int Int Int Int Int) Bool)
(declare-fun main_h_11 (Int Int Int Int Int Int Int Int) Bool)
(declare-fun main_h_1 (Int Int Int Int Int Int Int Int) Bool)
(assert(forall((?A Int)(?B Int)(?C Int)(?D Int)(?E Int)(?F Int)(?G Int)(?H Int)(?I Int)(?J Int)(?K Int)(?L Int))(=>(and (main_h_8 ?A ?B ?C ?D ?I ?J ?K ?L)(and (= ?L 1) (and (and (and (= ?I ?E) (= ?J ?F)) (= ?K ?G)) (= ?L ?H)))) (main_h_9 ?A ?B ?C ?D ?E ?F ?G ?H))))
(assert(forall((?A Int)(?B Int)(?C Int)(?D Int)(?E Int)(?F Int)(?G Int)(?H Int)(?I Int)(?J Int)(?K Int)(?L Int))(=>(and (main_h_7 ?A ?B ?C ?D ?I ?J ?K ?L)(and (= ?G (+ ?K 1)) (and (and (= ?I ?E) (= ?J ?F)) (= ?L ?H)))) (main_h_8 ?A ?B ?C ?D ?E ?F ?G ?H))))
(assert(forall((?A Int)(?B Int)(?C Int)(?D Int)(?E Int)(?F Int)(?G Int)(?H Int)(?I Int)(?J Int)(?K Int)(?L Int))(=>(and (main_h_8 ?A ?B ?C ?D ?I ?J ?K ?L)(and (and (and (= ?H 1) (= ?F (- ?L 1))) (>= ?L 2)) (and (= ?I ?E) (= ?K ?G)))) (main_h_10 ?A ?B ?C ?D ?E ?F ?G ?H))))
(assert(forall((?A Int)(?B Int)(?C Int)(?D Int)(?E Int)(?F Int)(?G Int)(?H Int)(?I Int)(?J Int)(?K Int)(?L Int))(=>(and (main_h_4 ?A ?B ?C ?D ?I ?J ?K ?L)(and (= ?G 0) (and (and (= ?I ?E) (= ?J ?F)) (= ?L ?H)))) (main_h_5 ?A ?B ?C ?D ?E ?F ?G ?H))))
(assert(forall((?A Int)(?B Int)(?C Int)(?D Int)(?E Int)(?F Int)(?G Int)(?H Int)(?I Int)(?J Int)(?K Int)(?L Int))(=>(and (main_h_33 ?A ?B ?C ?D ?I ?J ?K ?L)(and (and (and (= ?I ?E) (= ?J ?F)) (= ?K ?G)) (= ?L ?H))) (main_h_22 ?A ?B ?C ?D ?E ?F ?G ?H))))
(assert(forall((?A Int)(?B Int)(?C Int)(?D Int)(?E Int)(?F Int)(?G Int)(?H Int)(?I Int)(?J Int)(?K Int)(?L Int))(=>(and (main_h_6 ?A ?B ?C ?D ?I ?J ?K ?L)(and (and (and (= ?I ?E) (= ?J ?F)) (= ?K ?G)) (= ?L ?H))) (main_h_7 ?A ?B ?C ?D ?E ?F ?G ?H))))
(assert(forall((?A Int)(?B Int)(?C Int)(?D Int)(?E Int)(?F Int)(?G Int)(?H Int)(?I Int)(?J Int)(?K Int)(?L Int))(=>(and (main_h_5 ?A ?B ?C ?D ?I ?J ?K ?L)(and (and (and (= ?I ?E) (= ?J ?F)) (= ?K ?G)) (= ?L ?H))) (main_h_6 ?A ?B ?C ?D ?E ?F ?G ?H))))
(assert(forall((?A Int)(?B Int)(?C Int)(?D Int)(?E Int)(?F Int)(?G Int)(?H Int)(?I Int)(?J Int)(?K Int)(?L Int))(=>(and (main_h_32 ?A ?B ?C ?D ?I ?J ?K ?L)(and (= ?F ?I) (and (and (= ?I ?E) (= ?K ?G)) (= ?L ?H)))) (main_h_23 ?A ?B ?C ?D ?E ?F ?G ?H))))
(assert(forall((?A Int)(?B Int)(?C Int)(?D Int)(?E Int)(?F Int)(?G Int)(?H Int)(?I Int)(?J Int)(?K Int)(?L Int))(=>(and (main_h_31 ?A ?B ?C ?D ?I ?J ?K ?L)(and (and (= ?J 1) (= ?H (+ ?L 1))) (and (and (= ?I ?E) (= ?J ?F)) (= ?K ?G)))) (main_h_33 ?A ?B ?C ?D ?E ?F ?G ?H))))
(assert(not (exists((?A Int)(?B Int)(?C Int)(?D Int)(?E Int)(?F Int)(?G Int)(?H Int)(?I Int)(?J Int)(?K Int)(?L Int))(and (main_h_30 ?A ?B ?C ?D ?E ?F ?G ?H)(and (and (and (= ?E ?I) (= ?F ?J)) (= ?G ?K)) (= ?H ?L))))))
(assert(forall((?A Int)(?B Int)(?C Int)(?D Int)(?E Int)(?F Int)(?G Int)(?H Int)(?I Int)(?J Int)(?K Int)(?L Int))(=>(and (main_h_31 ?A ?B ?C ?D ?I ?J ?K ?L)(and (and (and (and (= ?H (+ ?L 1)) (= ?E (- ?J 1))) (= ?F 1)) (>= ?J 2)) (= ?K ?G))) (main_h_32 ?A ?B ?C ?D ?E ?F ?G ?H))))
(assert(forall((?A Int)(?B Int)(?C Int)(?D Int)(?E Int)(?F Int)(?G Int)(?H Int)(?I Int)(?J Int)(?K Int)(?L Int))(=>(and (main_h_28 ?A ?B ?C ?D ?I ?J ?K ?L)(and (= ?G (- ?K 1)) (and (and (= ?I ?E) (= ?J ?F)) (= ?L ?H)))) (main_h_30 ?A ?B ?C ?D ?E ?F ?G ?H))))
(assert(forall((?A Int)(?B Int)(?C Int)(?D Int)(?E Int)(?F Int)(?G Int)(?H Int)(?I Int)(?J Int)(?K Int)(?L Int))(=>(and (main_h_29 ?A ?B ?C ?D ?I ?J ?K ?L)(and (= ?G (- ?K 1)) (and (and (= ?I ?E) (= ?J ?F)) (= ?L ?H)))) (main_h_31 ?A ?B ?C ?D ?E ?F ?G ?H))))
(assert(forall((?A Int)(?B Int)(?C Int)(?D Int)(?E Int)(?F Int)(?G Int)(?H Int)(?I Int)(?J Int)(?K Int)(?L Int))(=>(and (main_h_3 ?A ?B ?C ?D ?I ?J ?K ?L)(and (and (and (= ?I ?E) (= ?J ?F)) (= ?K ?G)) (= ?L ?H))) (main_h_4 ?A ?B ?C ?D ?E ?F ?G ?H))))
(assert(forall((?A Int)(?B Int)(?C Int)(?D Int)(?E Int)(?F Int)(?G Int)(?H Int)(?I Int)(?J Int)(?K Int)(?L Int))(=>(and (main_h_27 ?A ?B ?C ?D ?I ?J ?K ?L)(and (and (and (= ?I ?E) (= ?J ?F)) (= ?K ?G)) (= ?L ?H))) (main_h_29 ?A ?B ?C ?D ?E ?F ?G ?H))))
(assert(forall((?A Int)(?B Int)(?C Int)(?D Int)(?E Int)(?F Int)(?G Int)(?H Int)(?I Int)(?J Int)(?K Int)(?L Int))(=>(and (main_h_23 ?A ?B ?C ?D ?I ?J ?K ?L)(and (and (and (= ?I ?E) (= ?J ?F)) (= ?K ?G)) (= ?L ?H))) (main_h_27 ?A ?B ?C ?D ?E ?F ?G ?H))))
(assert(forall((?A Int)(?B Int)(?C Int)(?D Int)(?E Int)(?F Int)(?G Int)(?H Int)(?I Int)(?J Int)(?K Int)(?L Int))(=>(and (main_h_24 ?A ?B ?C ?D ?I ?J ?K ?L)(and (and (and (= ?I ?E) (= ?J ?F)) (= ?K ?G)) (= ?L ?H))) (main_h_28 ?A ?B ?C ?D ?E ?F ?G ?H))))
(assert(forall((?A Int)(?B Int)(?C Int)(?D Int)(?E Int)(?F Int)(?G Int)(?H Int)(?I Int)(?J Int)(?K Int)(?L Int))(=>(and (main_h_22 ?A ?B ?C ?D ?I ?J ?K ?L)(and (<= ?K (- 0 1)) (and (and (and (= ?I ?E) (= ?J ?F)) (= ?K ?G)) (= ?L ?H)))) (main_h_24 ?A ?B ?C ?D ?E ?F ?G ?H))))
(assert(forall((?A Int)(?B Int)(?C Int)(?D Int)(?E Int)(?F Int)(?G Int)(?H Int)(?I Int)(?J Int)(?K Int)(?L Int))(=>(and (main_h_22 ?A ?B ?C ?D ?I ?J ?K ?L)(and (>= ?K 1) (and (and (and (= ?I ?E) (= ?J ?F)) (= ?K ?G)) (= ?L ?H)))) (main_h_24 ?A ?B ?C ?D ?E ?F ?G ?H))))
(assert(forall((?A Int)(?B Int)(?C Int)(?D Int)(?E Int)(?F Int)(?G Int)(?H Int)(?I Int)(?J Int)(?K Int)(?L Int))(=>(and (main_h_21 ?A ?B ?C ?D ?I ?J ?K ?L)(and (= ?L 1) (and (and (and (= ?I ?E) (= ?J ?F)) (= ?K ?G)) (= ?L ?H)))) (main_h_22 ?A ?B ?C ?D ?E ?F ?G ?H))))
(assert(forall((?A Int)(?B Int)(?C Int)(?D Int)(?E Int)(?F Int)(?G Int)(?H Int)(?I Int)(?J Int)(?K Int)(?L Int))(=>(and (main_h_21 ?A ?B ?C ?D ?I ?J ?K ?L)(and (and (and (= ?H 1) (= ?F (- ?L 1))) (>= ?L 2)) (and (= ?I ?E) (= ?K ?G)))) (main_h_23 ?A ?B ?C ?D ?E ?F ?G ?H))))
(assert(forall((?A Int)(?B Int)(?C Int)(?D Int)(?E Int)(?F Int)(?G Int)(?H Int)(?I Int)(?J Int)(?K Int)(?L Int))(=>(and (main_h_18 ?A ?B ?C ?D ?I ?J ?K ?L)(and (= ?G (- ?K 1)) (and (and (= ?I ?E) (= ?J ?F)) (= ?L ?H)))) (main_h_21 ?A ?B ?C ?D ?E ?F ?G ?H))))
(assert(forall((?A Int)(?B Int)(?C Int)(?D Int)(?E Int)(?F Int)(?G Int)(?H Int)(?I Int)(?J Int)(?K Int)(?L Int))(=>(and (main_h_20 ?A ?B ?C ?D ?I ?J ?K ?L)(and (= ?F ?I) (and (and (= ?I ?E) (= ?K ?G)) (= ?L ?H)))) (main_h_10 ?A ?B ?C ?D ?E ?F ?G ?H))))
(assert(forall((?A Int)(?B Int)(?C Int)(?D Int)(?E Int)(?F Int)(?G Int)(?H Int)(?I Int)(?J Int)(?K Int)(?L Int))(=>(and (main_h_17 ?A ?B ?C ?D ?I ?J ?K ?L)(and (and (and (and (= ?H (+ ?L 1)) (= ?E (- ?J 1))) (= ?F 1)) (>= ?J 2)) (= ?K ?G))) (main_h_20 ?A ?B ?C ?D ?E ?F ?G ?H))))
(assert(forall((?A Int)(?B Int)(?C Int)(?D Int)(?E Int)(?F Int)(?G Int)(?H Int)(?I Int)(?J Int)(?K Int)(?L Int))(=>(and (main_h_2 ?A ?B ?C ?D ?I ?J ?K ?L)(and (and (and (= ?I ?E) (= ?J ?F)) (= ?K ?G)) (= ?L ?H))) (main_h_3 ?A ?B ?C ?D ?E ?F ?G ?H))))
(assert(forall((?A Int)(?B Int)(?C Int)(?D Int)(?E Int)(?F Int)(?G Int)(?H Int)(?I Int)(?J Int)(?K Int)(?L Int))(=>(and (main_h_19 ?A ?B ?C ?D ?I ?J ?K ?L)(and (and (and (= ?I ?E) (= ?J ?F)) (= ?K ?G)) (= ?L ?H))) (main_h_9 ?A ?B ?C ?D ?E ?F ?G ?H))))
(assert(forall((?A Int)(?B Int)(?C Int)(?D Int)(?E Int)(?F Int)(?G Int)(?H Int)(?I Int)(?J Int)(?K Int)(?L Int))(=>(and (main_h_17 ?A ?B ?C ?D ?I ?J ?K ?L)(and (and (= ?J 1) (= ?H (+ ?L 1))) (and (and (= ?I ?E) (= ?J ?F)) (= ?K ?G)))) (main_h_19 ?A ?B ?C ?D ?E ?F ?G ?H))))
(assert(forall((?A Int)(?B Int)(?C Int)(?D Int)(?E Int)(?F Int)(?G Int)(?H Int)(?I Int)(?J Int)(?K Int)(?L Int))(=>(and (main_h_16 ?A ?B ?C ?D ?I ?J ?K ?L)(and (and (and (= ?I ?E) (= ?J ?F)) (= ?K ?G)) (= ?L ?H))) (main_h_18 ?A ?B ?C ?D ?E ?F ?G ?H))))
(assert(forall((?A Int)(?B Int)(?C Int)(?D Int)(?E Int)(?F Int)(?G Int)(?H Int)(?I Int)(?J Int)(?K Int)(?L Int))(=>(and (main_h_14 ?A ?B ?C ?D ?I ?J ?K ?L)(and (= ?G (+ ?K 1)) (and (and (= ?I ?E) (= ?J ?F)) (= ?L ?H)))) (main_h_17 ?A ?B ?C ?D ?E ?F ?G ?H))))
(assert(forall((?A Int)(?B Int)(?C Int)(?D Int)(?E Int)(?F Int)(?G Int)(?H Int)(?I Int)(?J Int)(?K Int)(?L Int))(=>(and (main_h_13 ?A ?B ?C ?D ?I ?J ?K ?L)(and (and (and (= ?I ?E) (= ?J ?F)) (= ?K ?G)) (= ?L ?H))) (main_h_16 ?A ?B ?C ?D ?E ?F ?G ?H))))
(assert(forall((?A Int)(?B Int)(?C Int)(?D Int)(?E Int)(?F Int)(?G Int)(?H Int)(?I Int)(?J Int)(?K Int)(?L Int))(=>(and (main_h_12 ?A ?B ?C ?D ?I ?J ?K ?L)(and (and (and (= ?I ?E) (= ?J ?F)) (= ?K ?G)) (= ?L ?H))) (main_h_14 ?A ?B ?C ?D ?E ?F ?G ?H))))
(assert(forall((?A Int)(?B Int)(?C Int)(?D Int)(?E Int)(?F Int)(?G Int)(?H Int)(?I Int)(?J Int)(?K Int)(?L Int))(=>(and (main_h_11 ?A ?B ?C ?D ?I ?J ?K ?L)(and (and (and (= ?I ?E) (= ?J ?F)) (= ?K ?G)) (= ?L ?H))) (main_h_13 ?A ?B ?C ?D ?E ?F ?G ?H))))
(assert(forall((?A Int)(?B Int)(?C Int)(?D Int)(?E Int)(?F Int)(?G Int)(?H Int)(?I Int)(?J Int)(?K Int)(?L Int))(=>(and (main_h_10 ?A ?B ?C ?D ?I ?J ?K ?L)(and (and (and (= ?I ?E) (= ?J ?F)) (= ?K ?G)) (= ?L ?H))) (main_h_12 ?A ?B ?C ?D ?E ?F ?G ?H))))
(assert(forall((?A Int)(?B Int)(?C Int)(?D Int)(?E Int)(?F Int)(?G Int)(?H Int)(?I Int)(?J Int)(?K Int)(?L Int))(=>(and (main_h_9 ?A ?B ?C ?D ?I ?J ?K ?L)(and (and (and (= ?I ?E) (= ?J ?F)) (= ?K ?G)) (= ?L ?H))) (main_h_11 ?A ?B ?C ?D ?E ?F ?G ?H))))
(assert(forall((?A Int)(?B Int)(?C Int)(?D Int)(?E Int)(?F Int)(?G Int)(?H Int)(?I Int)(?J Int)(?K Int)(?L Int))(=>(and (main_h_1 ?A ?B ?C ?D ?I ?J ?K ?L)(and (and (and (= ?I ?E) (= ?J ?F)) (= ?K ?G)) (= ?L ?H))) (main_h_2 ?A ?B ?C ?D ?E ?F ?G ?H))))
(assert(forall((?A Int)(?B Int)(?C Int)(?D Int)(?E Int)(?F Int)(?G Int)(?H Int))(=>(and (and (and (= ?A ?E) (= ?B ?F)) (= ?C ?G)) (= ?D ?H)) (main_h_1 ?A ?B ?C ?D ?E ?F ?G ?H))))
(check-sat)
